CAPACITY = 4;
N_TASKS = 20;
d = [ 1, 1, 3, 1, 3, 4, 5, 5, 3, 4, 5, 2, 3, 1, 2, 1, 2, 2, 3, 2 ];
rr = [ 4, 2, 2, 3, 2, 1, 4, 4, 1, 2, 1, 3, 3, 1, 3, 1, 3, 1, 3, 3 ];
suc = [ {  },
       { 8, 12, 15 },
       {  },
       { 14 },
       { 13 },
       { 11, 12, 20 },
       {  },
       { 12 },
       { 19 },
       { 11 },
       {  },
       {  },
       { 16 },
       {  },
       { 18 },
       { 19 },
       {  },
       {  },
       {  },
       {  } ];
